Code 1234
Dimension, Median
   128       16
 Facility, Client, Transportation Cost
     1        1           4
     1        2           3
     1        3           4
     1        5           4
     1        9           3
     1       17           3
     1       33           2
     1       65           0
     2        1           1
     2        2           3
     2        4           1
     2        6           4
     2       10           4
     2       18           3
     2       34           4
     2       66           2
     3        1           2
     3        3           4
     3        4           4
     3        7           2
     3       11           2
     3       19           1
     3       35           4
     3       67           2
     4        2           3
     4        3           3
     4        4           0
     4        8           0
     4       12           0
     4       20           1
     4       36           3
     4       68           4
     5        1           3
     5        5           2
     5        6           1
     5        7           2
     5       13           3
     5       21           0
     5       37           2
     5       69           3
     6        2           4
     6        5           2
     6        6           3
     6        8           3
     6       14           1
     6       22           3
     6       38           4
     6       70           4
     7        3           2
     7        5           3
     7        7           3
     7        8           4
     7       15           4
     7       23           2
     7       39           3
     7       71           4
     8        4           3
     8        6           0
     8        7           0
     8        8           1
     8       16           0
     8       24           4
     8       40           4
     8       72           1
     9        1           4
     9        9           0
     9       10           3
     9       11           1
     9       13           3
     9       25           1
     9       41           1
     9       73           4
    10        2           0
    10        9           0
    10       10           1
    10       12           1
    10       14           3
    10       26           4
    10       42           4
    10       74           2
    11        3           1
    11        9           0
    11       11           1
    11       12           0
    11       15           0
    11       27           1
    11       43           2
    11       75           3
    12        4           4
    12       10           0
    12       11           4
    12       12           3
    12       16           2
    12       28           1
    12       44           0
    12       76           4
    13        5           2
    13        9           1
    13       13           0
    13       14           3
    13       15           0
    13       29           2
    13       45           3
    13       77           0
    14        6           3
    14       10           3
    14       13           0
    14       14           3
    14       16           4
    14       30           4
    14       46           3
    14       78           4
    15        7           0
    15       11           2
    15       13           4
    15       15           0
    15       16           4
    15       31           1
    15       47           1
    15       79           2
    16        8           4
    16       12           0
    16       14           0
    16       15           4
    16       16           4
    16       32           4
    16       48           1
    16       80           2
    17        1           3
    17       17           3
    17       18           4
    17       19           3
    17       21           3
    17       25           4
    17       49           3
    17       81           4
    18        2           3
    18       17           2
    18       18           2
    18       20           3
    18       22           0
    18       26           2
    18       50           2
    18       82           3
    19        3           0
    19       17           4
    19       19           0
    19       20           0
    19       23           3
    19       27           1
    19       51           3
    19       83           3
    20        4           1
    20       18           3
    20       19           4
    20       20           2
    20       24           3
    20       28           1
    20       52           3
    20       84           0
    21        5           3
    21       17           0
    21       21           2
    21       22           2
    21       23           4
    21       29           0
    21       53           0
    21       85           4
    22        6           3
    22       18           4
    22       21           2
    22       22           4
    22       24           3
    22       30           4
    22       54           2
    22       86           3
    23        7           0
    23       19           1
    23       21           2
    23       23           2
    23       24           4
    23       31           1
    23       55           4
    23       87           1
    24        8           4
    24       20           1
    24       22           4
    24       23           4
    24       24           2
    24       32           1
    24       56           2
    24       88           2
    25        9           0
    25       17           1
    25       25           1
    25       26           0
    25       27           0
    25       29           0
    25       57           2
    25       89           4
    26       10           0
    26       18           0
    26       25           2
    26       26           1
    26       28           3
    26       30           2
    26       58           0
    26       90           3
    27       11           1
    27       19           2
    27       25           4
    27       27           4
    27       28           0
    27       31           1
    27       59           4
    27       91           4
    28       12           3
    28       20           1
    28       26           2
    28       27           4
    28       28           4
    28       32           3
    28       60           0
    28       92           0
    29       13           4
    29       21           3
    29       25           4
    29       29           1
    29       30           3
    29       31           0
    29       61           1
    29       93           3
    30       14           0
    30       22           1
    30       26           4
    30       29           4
    30       30           1
    30       32           4
    30       62           0
    30       94           4
    31       15           3
    31       23           1
    31       27           3
    31       29           1
    31       31           3
    31       32           0
    31       63           2
    31       95           4
    32       16           0
    32       24           3
    32       28           3
    32       30           2
    32       31           0
    32       32           0
    32       64           1
    32       96           2
    33        1           4
    33       33           1
    33       34           0
    33       35           4
    33       37           0
    33       41           2
    33       49           2
    33       97           4
    34        2           2
    34       33           0
    34       34           4
    34       36           3
    34       38           0
    34       42           0
    34       50           1
    34       98           2
    35        3           2
    35       33           0
    35       35           0
    35       36           4
    35       39           3
    35       43           1
    35       51           1
    35       99           0
    36        4           1
    36       34           3
    36       35           0
    36       36           2
    36       40           4
    36       44           3
    36       52           1
    36      100           4
    37        5           1
    37       33           4
    37       37           0
    37       38           2
    37       39           2
    37       45           4
    37       53           3
    37      101           0
    38        6           4
    38       34           3
    38       37           2
    38       38           2
    38       40           3
    38       46           1
    38       54           0
    38      102           3
    39        7           0
    39       35           0
    39       37           4
    39       39           4
    39       40           4
    39       47           1
    39       55           4
    39      103           0
    40        8           0
    40       36           0
    40       38           2
    40       39           4
    40       40           1
    40       48           3
    40       56           3
    40      104           4
    41        9           1
    41       33           0
    41       41           1
    41       42           2
    41       43           2
    41       45           1
    41       57           1
    41      105           0
    42       10           2
    42       34           1
    42       41           4
    42       42           3
    42       44           2
    42       46           4
    42       58           0
    42      106           4
    43       11           2
    43       35           3
    43       41           4
    43       43           3
    43       44           0
    43       47           0
    43       59           2
    43      107           0
    44       12           1
    44       36           2
    44       42           4
    44       43           0
    44       44           2
    44       48           4
    44       60           2
    44      108           3
    45       13           4
    45       37           4
    45       41           0
    45       45           3
    45       46           4
    45       47           4
    45       61           1
    45      109           0
    46       14           1
    46       38           2
    46       42           4
    46       45           1
    46       46           1
    46       48           2
    46       62           3
    46      110           4
    47       15           4
    47       39           0
    47       43           0
    47       45           1
    47       47           3
    47       48           3
    47       63           0
    47      111           3
    48       16           0
    48       40           1
    48       44           0
    48       46           2
    48       47           0
    48       48           4
    48       64           1
    48      112           3
    49       17           2
    49       33           0
    49       49           3
    49       50           4
    49       51           1
    49       53           0
    49       57           1
    49      113           1
    50       18           4
    50       34           2
    50       49           2
    50       50           1
    50       52           1
    50       54           1
    50       58           2
    50      114           2
    51       19           4
    51       35           3
    51       49           2
    51       51           3
    51       52           3
    51       55           2
    51       59           0
    51      115           3
    52       20           2
    52       36           1
    52       50           1
    52       51           4
    52       52           0
    52       56           0
    52       60           1
    52      116           2
    53       21           1
    53       37           1
    53       49           4
    53       53           2
    53       54           1
    53       55           4
    53       61           2
    53      117           3
    54       22           3
    54       38           3
    54       50           1
    54       53           3
    54       54           1
    54       56           2
    54       62           4
    54      118           1
    55       23           3
    55       39           3
    55       51           0
    55       53           4
    55       55           3
    55       56           4
    55       63           4
    55      119           1
    56       24           0
    56       40           1
    56       52           2
    56       54           1
    56       55           3
    56       56           2
    56       64           3
    56      120           4
    57       25           1
    57       41           2
    57       49           0
    57       57           4
    57       58           2
    57       59           0
    57       61           4
    57      121           0
    58       26           2
    58       42           3
    58       50           0
    58       57           0
    58       58           1
    58       60           3
    58       62           2
    58      122           3
    59       27           2
    59       43           3
    59       51           4
    59       57           3
    59       59           0
    59       60           1
    59       63           2
    59      123           3
    60       28           2
    60       44           2
    60       52           0
    60       58           0
    60       59           4
    60       60           0
    60       64           0
    60      124           2
    61       29           1
    61       45           2
    61       53           0
    61       57           3
    61       61           3
    61       62           0
    61       63           1
    61      125           4
    62       30           2
    62       46           3
    62       54           1
    62       58           0
    62       61           3
    62       62           2
    62       64           3
    62      126           3
    63       31           0
    63       47           3
    63       55           1
    63       59           4
    63       61           1
    63       63           1
    63       64           4
    63      127           4
    64       32           2
    64       48           0
    64       56           0
    64       60           1
    64       62           0
    64       63           2
    64       64           2
    64      128           2
    65        1           1
    65       65           1
    65       66           2
    65       67           3
    65       69           4
    65       73           1
    65       81           3
    65       97           2
    66        2           4
    66       65           0
    66       66           3
    66       68           1
    66       70           4
    66       74           0
    66       82           4
    66       98           2
    67        3           3
    67       65           2
    67       67           2
    67       68           3
    67       71           4
    67       75           4
    67       83           4
    67       99           2
    68        4           2
    68       66           2
    68       67           1
    68       68           4
    68       72           3
    68       76           2
    68       84           1
    68      100           4
    69        5           3
    69       65           3
    69       69           0
    69       70           0
    69       71           3
    69       77           3
    69       85           1
    69      101           2
    70        6           0
    70       66           3
    70       69           2
    70       70           0
    70       72           1
    70       78           3
    70       86           2
    70      102           3
    71        7           2
    71       67           1
    71       69           4
    71       71           3
    71       72           1
    71       79           0
    71       87           0
    71      103           2
    72        8           1
    72       68           3
    72       70           3
    72       71           2
    72       72           1
    72       80           3
    72       88           0
    72      104           1
    73        9           0
    73       65           3
    73       73           0
    73       74           1
    73       75           3
    73       77           1
    73       89           2
    73      105           0
    74       10           2
    74       66           3
    74       73           0
    74       74           4
    74       76           2
    74       78           0
    74       90           1
    74      106           3
    75       11           3
    75       67           2
    75       73           4
    75       75           1
    75       76           0
    75       79           3
    75       91           3
    75      107           0
    76       12           3
    76       68           0
    76       74           1
    76       75           1
    76       76           2
    76       80           2
    76       92           3
    76      108           3
    77       13           4
    77       69           4
    77       73           1
    77       77           3
    77       78           0
    77       79           2
    77       93           3
    77      109           0
    78       14           0
    78       70           3
    78       74           2
    78       77           4
    78       78           1
    78       80           4
    78       94           2
    78      110           3
    79       15           2
    79       71           2
    79       75           0
    79       77           3
    79       79           0
    79       80           0
    79       95           2
    79      111           1
    80       16           1
    80       72           2
    80       76           1
    80       78           3
    80       79           0
    80       80           3
    80       96           2
    80      112           0
    81       17           1
    81       65           3
    81       81           2
    81       82           0
    81       83           0
    81       85           3
    81       89           0
    81      113           1
    82       18           4
    82       66           0
    82       81           1
    82       82           0
    82       84           2
    82       86           1
    82       90           2
    82      114           0
    83       19           1
    83       67           3
    83       81           4
    83       83           0
    83       84           0
    83       87           2
    83       91           0
    83      115           2
    84       20           4
    84       68           3
    84       82           2
    84       83           1
    84       84           0
    84       88           1
    84       92           1
    84      116           3
    85       21           1
    85       69           3
    85       81           1
    85       85           2
    85       86           1
    85       87           0
    85       93           2
    85      117           1
    86       22           1
    86       70           2
    86       82           0
    86       85           2
    86       86           1
    86       88           3
    86       94           4
    86      118           0
    87       23           4
    87       71           3
    87       83           2
    87       85           3
    87       87           0
    87       88           0
    87       95           2
    87      119           0
    88       24           2
    88       72           3
    88       84           3
    88       86           2
    88       87           0
    88       88           0
    88       96           3
    88      120           3
    89       25           2
    89       73           0
    89       81           3
    89       89           0
    89       90           2
    89       91           3
    89       93           4
    89      121           3
    90       26           1
    90       74           2
    90       82           0
    90       89           0
    90       90           1
    90       92           4
    90       94           0
    90      122           4
    91       27           1
    91       75           0
    91       83           4
    91       89           4
    91       91           1
    91       92           2
    91       95           3
    91      123           4
    92       28           3
    92       76           0
    92       84           3
    92       90           2
    92       91           0
    92       92           4
    92       96           0
    92      124           3
    93       29           4
    93       77           3
    93       85           0
    93       89           1
    93       93           0
    93       94           3
    93       95           0
    93      125           1
    94       30           0
    94       78           2
    94       86           1
    94       90           1
    94       93           4
    94       94           1
    94       96           1
    94      126           3
    95       31           3
    95       79           4
    95       87           2
    95       91           4
    95       93           3
    95       95           1
    95       96           0
    95      127           3
    96       32           3
    96       80           2
    96       88           3
    96       92           3
    96       94           2
    96       95           1
    96       96           1
    96      128           2
    97       33           2
    97       65           3
    97       97           2
    97       98           4
    97       99           4
    97      101           0
    97      105           1
    97      113           3
    98       34           0
    98       66           0
    98       97           1
    98       98           1
    98      100           3
    98      102           3
    98      106           2
    98      114           0
    99       35           0
    99       67           1
    99       97           0
    99       99           1
    99      100           2
    99      103           3
    99      107           0
    99      115           1
   100       36           1
   100       68           0
   100       98           0
   100       99           1
   100      100           0
   100      104           1
   100      108           4
   100      116           2
   101       37           1
   101       69           4
   101       97           4
   101      101           3
   101      102           2
   101      103           3
   101      109           1
   101      117           0
   102       38           1
   102       70           4
   102       98           2
   102      101           0
   102      102           4
   102      104           1
   102      110           3
   102      118           2
   103       39           1
   103       71           0
   103       99           2
   103      101           3
   103      103           3
   103      104           4
   103      111           0
   103      119           3
   104       40           2
   104       72           3
   104      100           2
   104      102           0
   104      103           2
   104      104           3
   104      112           2
   104      120           4
   105       41           1
   105       73           2
   105       97           2
   105      105           3
   105      106           1
   105      107           2
   105      109           2
   105      121           1
   106       42           1
   106       74           2
   106       98           1
   106      105           3
   106      106           0
   106      108           3
   106      110           1
   106      122           2
   107       43           4
   107       75           2
   107       99           4
   107      105           2
   107      107           2
   107      108           3
   107      111           4
   107      123           1
   108       44           0
   108       76           4
   108      100           4
   108      106           4
   108      107           1
   108      108           0
   108      112           1
   108      124           3
   109       45           4
   109       77           1
   109      101           4
   109      105           2
   109      109           4
   109      110           2
   109      111           2
   109      125           0
   110       46           2
   110       78           2
   110      102           2
   110      106           4
   110      109           0
   110      110           4
   110      112           3
   110      126           2
   111       47           4
   111       79           2
   111      103           3
   111      107           0
   111      109           2
   111      111           4
   111      112           3
   111      127           1
   112       48           3
   112       80           3
   112      104           1
   112      108           3
   112      110           3
   112      111           0
   112      112           3
   112      128           4
   113       49           3
   113       81           3
   113       97           4
   113      113           2
   113      114           2
   113      115           4
   113      117           4
   113      121           1
   114       50           1
   114       82           3
   114       98           4
   114      113           1
   114      114           2
   114      116           1
   114      118           3
   114      122           4
   115       51           2
   115       83           0
   115       99           2
   115      113           4
   115      115           4
   115      116           1
   115      119           4
   115      123           0
   116       52           2
   116       84           4
   116      100           2
   116      114           0
   116      115           2
   116      116           1
   116      120           1
   116      124           0
   117       53           0
   117       85           2
   117      101           1
   117      113           2
   117      117           3
   117      118           4
   117      119           1
   117      125           0
   118       54           3
   118       86           1
   118      102           3
   118      114           3
   118      117           1
   118      118           1
   118      120           0
   118      126           1
   119       55           4
   119       87           2
   119      103           1
   119      115           3
   119      117           2
   119      119           3
   119      120           2
   119      127           1
   120       56           2
   120       88           3
   120      104           1
   120      116           1
   120      118           4
   120      119           1
   120      120           1
   120      128           2
   121       57           2
   121       89           0
   121      105           3
   121      113           1
   121      121           4
   121      122           4
   121      123           0
   121      125           2
   122       58           3
   122       90           2
   122      106           1
   122      114           2
   122      121           4
   122      122           3
   122      124           4
   122      126           3
   123       59           3
   123       91           3
   123      107           4
   123      115           4
   123      121           4
   123      123           3
   123      124           0
   123      127           0
   124       60           3
   124       92           3
   124      108           3
   124      116           2
   124      122           1
   124      123           4
   124      124           0
   124      128           3
   125       61           4
   125       93           1
   125      109           2
   125      117           3
   125      121           0
   125      125           0
   125      126           4
   125      127           3
   126       62           3
   126       94           3
   126      110           3
   126      118           1
   126      122           4
   126      125           1
   126      126           0
   126      128           2
   127       63           4
   127       95           4
   127      111           0
   127      119           0
   127      123           4
   127      125           4
   127      127           3
   127      128           3
   128       64           3
   128       96           4
   128      112           3
   128      120           1
   128      124           4
   128      126           1
   128      127           1
   128      128           3
